
******************************************************************************
This program contains Ipopt, a library for large-scale nonlinear optimization.
 Ipopt is released as open source code under the Eclipse Public License (EPL).
         For more information visit http://projects.coin-or.org/Ipopt
******************************************************************************

This is Ipopt version 3.12.6, running with linear solver ma57.

Number of nonzeros in equality constraint Jacobian...:        0
Number of nonzeros in inequality constraint Jacobian.:       12
Number of nonzeros in Lagrangian Hessian.............:       21

Total number of variables............................:        6
                     variables with only lower bounds:        6
                variables with lower and upper bounds:        0
                     variables with only upper bounds:        0
Total number of equality constraints.................:        0
Total number of inequality constraints...............:        2
        inequality constraints with only lower bounds:        1
   inequality constraints with lower and upper bounds:        0
        inequality constraints with only upper bounds:        1

iter    objective    inf_pr   inf_du lg(mu)  ||d||  lg(rg) alpha_du alpha_pr  ls
   0  1.3706644e+02 0.00e+00 2.57e+01  -1.0 0.00e+00    -  0.00e+00 0.00e+00   0
   1  1.3611752e+02 9.53e-03 1.34e+01  -1.0 8.60e+00    -  6.80e-01 3.36e-02f  1
   2  1.3483640e+02 1.05e-02 2.17e+01  -1.0 6.68e-01   0.0 1.00e+00 2.72e-01f  1
   3  1.3464580e+02 1.43e-02 3.62e+00  -1.0 8.92e-01  -0.5 1.00e+00 1.00e+00f  1
   4  1.3517507e+02 7.54e-04 1.03e-01  -1.0 3.75e-01    -  1.00e+00 1.00e+00h  1
   5  1.3508223e+02 1.86e-06 1.73e-03  -2.5 4.19e-02    -  1.00e+00 1.00e+00f  1
   6  1.3507633e+02 0.00e+00 4.13e-06  -3.8 1.15e-03    -  1.00e+00 1.00e+00h  1
   7  1.3507597e+02 0.00e+00 8.52e-09  -5.7 5.00e-05    -  1.00e+00 1.00e+00h  1
   8  1.3507596e+02 0.00e+00 1.32e-12  -8.6 6.12e-07    -  1.00e+00 1.00e+00h  1

Number of Iterations....: 8

                                   (scaled)                 (unscaled)
Objective...............:   1.1022058069402593e+02    1.3507596245170538e+02
Dual infeasibility......:   1.3229525930828637e-12    1.6212860943340400e-12
Constraint violation....:   0.0000000000000000e+00    0.0000000000000000e+00
Complementarity.........:   2.5067265809841619e-09    3.0720079988479035e-09
Overall NLP error.......:   2.5067265809841619e-09    3.0720079988479035e-09


Number of objective function evaluations             = 9
Number of objective gradient evaluations             = 9
Number of equality constraint evaluations            = 0
Number of inequality constraint evaluations          = 9
Number of equality constraint Jacobian evaluations   = 0
Number of inequality constraint Jacobian evaluations = 9
Number of Lagrangian Hessian evaluations             = 8
Total CPU secs in IPOPT (w/o function evaluations)   =      0.010
Total CPU secs in NLP function evaluations           =      0.000

EXIT: Optimal Solution Found.

************************ CUTEst statistics ************************


 Package used            :  IPOPT
 Problem                 :  HS93      
 # variables             =               6
 # constraints           =               2
 # objective functions   =        0.1900000E+02
 # objective gradients   =        0.1000000E+02
 # objective Hessians    =        0.9000000E+01
 # Hessian-vector prdct  =        0.0000000E+00
 # constraints functions =        0.2000000E+02
 # constraints gradients =        0.1100000E+02
 # constraints Hessians  =        0.9000000E+01
 Exit code               =               0
 Final f                 =   0.1350760E+03
 Set up time             =            0.00 seconds
 Solve time              =            0.02 seconds


******************************************************************

System Time =       0.0040000002 s.
